Route #1: 58 32 4 22 45 50 76 70
Route #2: 49 73 38 66 67 36 42
Route #3: 72 54 9 55 56 69 65 35 26 47 19 75 20
Route #4: 53 64 33 15 41 25 46 31 17 29
Route #5: 51 77 3 39 60 74 13
Route #6: 30 78 68 16 43 57 61 59 27
Route #7: 63 62 23 5 44 12
Route #8: 10 11 34 2 37 8 6 24
Route #9: 52 28 79 18 48 14 71
Route #10: 40 21 7 1
Cost 1785
Time 0.166941
